webassembly/ejemplos_dzn/5/folder5_json_36.dzn
TERM = { '.', 's(2)', 'in_1', 'local_0', 'local_1', 'in_2', 'in_3', 's(1)', 's(0)', 's(3)', 'in_0'};
null = '.';
s = 5;
n = 9;
ndeps = 1;
max_registers_sz = 4;
NR = 1;
registers = [|'local_0', 'in_3'|];
dependencies = [|'i32.store16_1', 'call[function_index(0)]_3'|];
GET_ENUM = { GET1, GET2, GET3, GET4, GET5};
SET_ENUM = { SET1, SET2, SET3, SET4, SET5};
TEE_ENUM = { TEE1, TEE2, TEE3, TEE4, TEE5};
N = 4;
OP = { 'call[function_index(0)]_3', 'i32.sub_0', 'i32.store16_1', 'local.get_0' };
in_ops = [0, 2, 2, 0 ];
out_ops = [3, 1, 0, 1 ];
in1 = ['.', 'in_0', 's(0)', '.' ];
in2 = ['.', 'in_1', 'in_2', '.' ];
in3 = ['.', '.', '.', '.' ];
out1 = ['s(3)', 's(0)', '.', 'local_1' ];
out2 = ['s(2)', '.', '.', '.' ];
out3 = ['s(1)', '.', '.', '.' ];
comm = [false, false, false, false ];
gas = [1, 1, 1, 1 ];
sz = [1, 1, 1, 1 ];
stor = [true, false, true, false ];
lb = [ 1, 1, 1, 1 ];
ub = [ 5, 5, 5, 5 ];
startstack = [ 'in_0', 'in_1', 'in_2', 'in_3', null, null, null, null, null ];
endstack = [ 'local_1', 's(3)', 's(2)', 's(1)', null, null, null, null, null ];
